Gurobi Optimizer version 9.1.2 build v9.1.2rc0 (linux64)
Thread count: 36 physical cores, 72 logical processors, using up to 32 threads
Optimize a model with 12 rows, 57 columns and 590 nonzeros
Model fingerprint: 0xf32eec78
Model has 47 quadratic constraints
Coefficient statistics:
  Matrix range     [2e-05, 3e+00]
  QMatrix range    [1e+00, 1e+00]
  QLMatrix range   [1e+00, 1e+00]
  Objective range  [8e-03, 7e-01]
  Bounds range     [1e+00, 1e+00]
  RHS range        [1e+00, 1e+00]
Presolve removed 9 rows and 0 columns

Continuous model is non-convex -- solving as a MIP.

Presolve removed 9 rows and 0 columns
Presolve time: 0.00s
Presolved: 189 rows, 57 columns, 443 nonzeros
Presolved model has 47 bilinear constraint(s)
Variable types: 57 continuous, 0 integer (0 binary)

Root relaxation: objective -1.743721e+00, 44 iterations, 0.00 seconds

    Nodes    |    Current Node    |     Objective Bounds      |     Work
 Expl Unexpl |  Obj  Depth IntInf | Incumbent    BestBd   Gap | It/Node Time

     0     0   -1.74372    0   38          -   -1.74372      -     -    0s
H    0     0                       0.6147548   -1.74372   384%     -    0s
     0     0   -1.64739    0    1    0.61475   -1.64739   368%     -    0s
H    0     0                      -1.6450460   -1.64739  0.14%     -    0s
     0     0     cutoff    0        -1.64505   -1.64505  0.00%     -    0s

Cutting planes:
  RLT: 25
  BQP: 3

Explored 1 nodes (76 simplex iterations) in 0.01 seconds
Thread count was 32 (of 72 available processors)

Solution count 2: -1.64505 0.614755 
No other solutions better than -1.64505

Optimal solution found (tolerance 1.00e-04)
Best objective -1.645045978473e+00, best bound -1.645045978473e+00, gap 0.0000%

User-callback calls 78, time in user-callback 0.00 sec
Gurobi Optimizer version 9.1.2 build v9.1.2rc0 (linux64)
Thread count: 36 physical cores, 72 logical processors, using up to 32 threads
Optimize a model with 24 rows, 120 columns and 2480 nonzeros
Model fingerprint: 0xb194d9ff
Model has 100 quadratic constraints
Coefficient statistics:
  Matrix range     [8e-06, 4e+00]
  QMatrix range    [1e+00, 1e+00]
  QLMatrix range   [1e+00, 1e+00]
  Objective range  [2e-03, 9e-01]
  Bounds range     [1e+00, 1e+00]
  RHS range        [1e+00, 1e+00]
Presolve removed 17 rows and 0 columns

Continuous model is non-convex -- solving as a MIP.

Presolve removed 17 rows and 0 columns
Presolve time: 0.00s
Presolved: 407 rows, 120 columns, 1232 nonzeros
Presolved model has 100 bilinear constraint(s)
Variable types: 120 continuous, 0 integer (0 binary)

Root relaxation: objective -4.681948e+00, 127 iterations, 0.00 seconds

    Nodes    |    Current Node    |     Objective Bounds      |     Work
 Expl Unexpl |  Obj  Depth IntInf | Incumbent    BestBd   Gap | It/Node Time

     0     0   -4.68195    0  100          -   -4.68195      -     -    0s
H    0     0                       2.0711912   -4.68195   326%     -    0s
     0     0   -3.16985    0  100    2.07119   -3.16985   253%     -    0s
H    0     0                       0.3070030   -3.16985  1133%     -    0s
     0     0   -3.16980    0  100    0.30700   -3.16980  1132%     -    0s
     0     0   -2.86308    0  100    0.30700   -2.86308  1033%     -    0s
H    0     0                      -0.1578361   -2.86308  1714%     -    0s
     0     0   -2.85921    0  100   -0.15784   -2.85921  1712%     -    0s
     0     0   -2.76313    0  100   -0.15784   -2.76313  1651%     -    0s
H    0     0                      -1.0690680   -2.76313   158%     -    0s
     0     0   -2.75568    0  100   -1.06907   -2.75568   158%     -    0s
     0     0   -2.74965    0  100   -1.06907   -2.74965   157%     -    0s
     0     0   -2.74867    0  100   -1.06907   -2.74867   157%     -    0s
     0     0   -2.74329    0  100   -1.06907   -2.74329   157%     -    0s
     0     0   -2.74278    0  100   -1.06907   -2.74278   157%     -    0s
     0     0   -2.74125    0  100   -1.06907   -2.74125   156%     -    0s
H    0     0                      -2.2672733   -2.74125  20.9%     -    0s
H    0     0                      -2.2867033   -2.74125  19.9%     -    0s
H    0     0                      -2.2918087   -2.74125  19.6%     -    0s
     0     2   -2.74125    0  100   -2.29181   -2.74125  19.6%     -    0s
*  373   203              14      -2.2918361   -2.45422  7.09%  22.8    0s
*  415   271              15      -2.2922993   -2.45422  7.06%  21.5    0s
*  459   271              17      -2.3192902   -2.45422  5.82%  20.5    0s
*  538   250              20      -2.3338925   -2.45422  5.16%  18.5    0s
*  588   310              22      -2.3540722   -2.44963  4.06%  17.4    0s
*  723   328              23      -2.3540732   -2.43825  3.58%  15.5    0s
*  733   328              26      -2.3550329   -2.43825  3.53%  15.4    0s
*  779   328              17      -2.3572491   -2.43825  3.44%  15.0    0s
*  958   446              24      -2.3842886   -2.43825  2.26%  13.6    0s
*  959   446              24      -2.3842890   -2.43825  2.26%  13.6    0s
* 1128   317              27      -2.3862500   -2.43825  2.18%  12.5    0s
* 1304   336              18      -2.3866288   -2.39835  0.49%  11.1    0s
* 1345   336              22      -2.3873611   -2.39835  0.46%  10.9    0s
* 1649   122              23      -2.3874536   -2.38752  0.00%   9.4    0s

Cutting planes:
  RLT: 54
  BQP: 6
  PSD: 9

Explored 1820 nodes (16053 simplex iterations) in 0.45 seconds
Thread count was 32 (of 72 available processors)

Solution count 10: -2.38745 -2.38736 -2.38663 ... -2.33389

Optimal solution found (tolerance 1.00e-04)
Best objective -2.387453638848e+00, best bound -2.387521165720e+00, gap 0.0028%

User-callback calls 3892, time in user-callback 0.00 sec



objective value: -2.387453638847772
objective bound: -2.387521165720018
x_opt: [0.0, 1.0, 1.0, 0.0, 1.0, 0.054904260620056614, 0.0, 0.0, 1.0, 1.0, 0.0, 0.1668648452642554, 0.0, 1.0, 0.0, 0.9263365439464067, 1.0, 0.09322344220324258, 0.0, 0.48296828157794053]
GUROBI solution time: 0.44647908210754395




